c This is an instance of the exact track of PACE 2020 Challenge, see https://pacechallenge.org/2020/ 
c TYPE: biology 
c ORIGIN: www.genome.jp/kegg/ 
c DESCRIPTION: This is a graph derived from a biological pathway map. The nodes are genes (also representing their associated proteins), enzymes, or chemical compounds, and there is an edge between two nodes if they influence each other (such as a gene modifying the expression of another gene) or take part in a common chemical reaction. This graph is a connected part of the map "mmu05200 Pathways in cancer - Mus musculus (mouse)". 
p tdp 119 147
11 23
11 26
11 25
11 19
11 24
11 15
11 9
11 17
23 7
23 87
37 39
37 40
37 45
37 43
37 82
37 77
37 38
37 42
37 36
37 41
37 46
39 57
29 84
29 90
29 27
29 83
27 114
27 31
27 85
27 7
27 55
27 30
27 26
27 54
27 28
27 111
27 102
114 113
7 24
7 17
7 111
7 77
7 21
7 15
7 6
7 8
7 13
24 88
22 79
22 115
22 17
22 13
22 15
22 78
79 113
79 30
48 72
48 20
72 47
104 105
104 50
14 15
10 71
10 20
10 106
10 9
63 69
63 67
63 68
63 66
63 65
63 44
63 64
63 70
2 3
2 1
3 36
3 95
96 97
96 118
96 119
96 116
96 117
97 98
51 75
51 74
51 76
51 73
51 50
75 91
75 53
75 52
20 13
20 21
20 110
20 107
20 47
20 111
31 32
31 35
32 33
32 34
98 100
98 99
98 103
100 101
100 102
28 49
28 30
49 50
25 89
45 108
17 16
109 110
53 76
53 74
53 73
53 50
76 52
76 91
91 50
91 74
91 73
46 56
43 44
50 86
50 52
36 81
81 59
74 52
18 19
4 5
5 6
77 93
8 9
13 12
13 94
34 92
52 73
30 112
30 78
35 80
102 103
33 58
59 62
59 61
59 60
